SCIP Status        : solving was interrupted [time limit reached]
Total Time         :    3600.02
  solving          :    3600.01
  presolving       :       0.39 (included in solving)
  reading          :       0.01
  copying          :       1.45 (46 #copies) (minimal 0.00, maximal 0.08, average 0.03)
Original Problem   :
  Problem name     : bbbenchmark/g05_100.4.cut
  Variables        : 101 (100 binary, 0 integer, 0 implicit integer, 1 continuous)
  Constraints      : 1 initial, 1 maximal
  Objective        : minimize, 1 non-zeros (abs.min = 1, abs.max = 1)
Presolved Problem  :
  Problem name     : t_bbbenchmark/g05_100.4.cut
  Variables        : 1765 (100 binary, 0 integer, 1648 implicit integer, 17 continuous)
  Constraints      : 1697 initial, 6542 maximal
  Objective        : minimize, 1 non-zeros (abs.min = 1, abs.max = 1)
  Nonzeros         : 8443 constraint, 202 clique table
Presolvers         :   ExecTime  SetupTime  Calls  FixedVars   AggrVars   ChgTypes  ChgBounds   AddHoles    DelCons    AddCons   ChgSides   ChgCoefs
  boundshift       :       0.00       0.00      0          0          0          0          0          0          0          0          0          0
  convertinttobin  :       0.00       0.00      0          0          0          0          0          0          0          0          0          0
  domcol           :       0.00       0.00      1          0          0          0          0          0          0          0          0          0
  dualagg          :       0.00       0.00      0          0          0          0          0          0          0          0          0          0
  dualcomp         :       0.00       0.00      1          0          0          0          0          0          0          0          0          0
  dualinfer        :       0.00       0.00      0          0          0          0          0          0          0          0          0          0
  dualsparsify     :       0.00       0.00      1          0          0          0          0          0          0          0          0          0
  gateextraction   :       0.00       0.00      0          0          0          0          0          0          0          0          0          0
  implics          :       0.00       0.00      2          0          0          0          0          0          0          0          0          0
  inttobinary      :       0.00       0.00      0          0          0          0          0          0          0          0          0          0
  qpkktref         :       0.00       0.00      0          0          0          0          0          0          0          0          0          0
  redvub           :       0.00       0.00      0          0          0          0          0          0          0          0          0          0
  sparsify         :       0.00       0.00      1          0          0          0          0          0          0          0          0          0
  stuffing         :       0.00       0.00      0          0          0          0          0          0          0          0          0          0
  trivial          :       0.00       0.00      4          0          0          0          0          0          0          0          0          0
  tworowbnd        :       0.00       0.00      0          0          0          0          0          0          0          0          0          0
  dualfix          :       0.00       0.00      4          0          0          0          0          0          0          0          0          0
  genvbounds       :       0.00       0.00      0          0          0          0          0          0          0          0          0          0
  probing          :       0.31       0.00      1          0          0          0          0          0          0          0          0          0
  pseudoobj        :       0.00       0.00      1          0          0          0          1          0          0          0          0          0
  symmetry         :       0.00       0.00      0          0          0          0          0          0          0          0          0          0
  vbounds          :       0.00       0.00      1          0          0          0          0          0          0          0          0          0
  varbound         :       0.00       0.00      2          0          0          0          0          0          0          0          0          0
  and              :       0.01       0.01      2          0          0          0          0          0          0          0          0          0
  linear           :       0.00       0.00      2          0          0          0          0          0          0          0          0          0
  logicor          :       0.00       0.00      0          0          0          0          0          0          0          0          0          0
  bounddisjunction :       0.00       0.00      0          0          0          0          0          0          0          0          0          0
  nonlinear        :       0.05       0.01      5          0          0          0          1          0          0       1696          0          0
  benders          :       0.00       0.00      0          0          0          0          0          0          0          0          0          0
  components       :       0.00       0.00      1          0          0          0          0          0          0          0          0          0
  root node        :          -          -      -          0          -          -         13          -          -          -          -          -
Constraints        :     Number  MaxNumber  #Separate #Propagate    #EnfoLP    #EnfoRelax  #EnfoPS    #Check   #ResProp    Cutoffs    DomReds       Cuts    Applied      Conss   Children
  benderslp        :          0          0          0          0      68533          0          0       3310          0          0          0          0          0          0          0
  integral         :          0          0          0          0      68533          0          0       3310          0          0        529          0          0        460     136382
  varbound         :         16         16        129     525513          0          0          0         31          0          0      54028          0          0          0          0
  and              :       1648       1648      90652     589796          5          0          0         31     337395          0     245439      18885      18187          0          0
  linear           :         33+       127        129     589850          5          0          0         29       2176         45     230165          0          0          0          0
  logicor          :          0+      4359          0      86583          0          0          0          0        104        410         58          0          0          0          0
  bounddisjunction :          0+       958          0      53538          0          0          0          0          1         45          1          0          0          0          0
  benders          :          0          0          0          0          5          0          0         29          0          0          0          0          0          0          0
  countsols        :          0          0          0          0          5          0          0         29          0          0          0          0          0          0          0
  components       :          0          0          0          0          0          0          0          0          0          0          0          0          0          0          0
Constraint Timings :  TotalTime  SetupTime   Separate  Propagate     EnfoLP     EnfoPS     EnfoRelax   Check    ResProp    SB-Prop
  benderslp        :       0.09       0.00       0.00       0.00       0.09       0.00       0.00       0.00       0.00       0.00
  integral         :      46.71       0.00       0.00       0.00      46.71       0.00       0.00       0.00       0.00       0.00
  varbound         :       0.87       0.00       0.00       0.87       0.00       0.00       0.00       0.00       0.00       0.00
  and              :      79.95       0.01      53.16      25.98       0.01       0.00       0.00       0.01       0.15       0.63
  linear           :       4.11       0.00       0.11       3.97       0.00       0.00       0.00       0.00       0.01       0.02
  logicor          :       5.21       0.00       0.00       5.21       0.00       0.00       0.00       0.00       0.00       0.00
  bounddisjunction :       1.36       0.00       0.00       1.36       0.00       0.00       0.00       0.00       0.00       0.00
  benders          :       0.00       0.00       0.00       0.00       0.00       0.00       0.00       0.00       0.00       0.00
  countsols        :       0.00       0.00       0.00       0.00       0.00       0.00       0.00       0.00       0.00       0.00
  components       :       0.19       0.00       0.00       0.19       0.00       0.00       0.00       0.00       0.00       0.00
Propagators        : #Propagate   #ResProp    Cutoffs    DomReds
  dualfix          :          4          0          0          0
  genvbounds       :          0          0          0          0
  nlobbt           :          0          0          0          0
  obbt             :          0          0          0          0
  probing          :          0          0          0          0
  pseudoobj        :     314086          0          0         17
  redcost          :     171109          0          0      47513
  rootredcost      :         16          0          0          0
  symmetry         :          0          0          0          0
  vbounds          :     100463          0          0          0
Propagator Timings :  TotalTime  SetupTime   Presolve  Propagate    ResProp    SB-Prop
  dualfix          :       0.00       0.00       0.00       0.00       0.00       0.00
  genvbounds       :       0.38       0.00       0.00       0.37       0.00       0.01
  nlobbt           :       0.00       0.00       0.00       0.00       0.00       0.00
  obbt             :       0.00       0.00       0.00       0.00       0.00       0.00
  probing          :       0.31       0.00       0.31       0.00       0.00       0.00
  pseudoobj        :       0.86       0.00       0.00       0.86       0.00       0.00
  redcost          :      11.61       0.00       0.00      11.60       0.00       0.01
  rootredcost      :       0.51       0.00       0.00       0.51       0.00       0.00
  symmetry         :       0.39       0.00       0.00       0.39       0.00       0.00
  vbounds          :       0.52       0.00       0.00       0.52       0.00       0.00
Conflict Analysis  :       Time      Calls    Success    DomReds  Conflicts   Literals    Reconvs ReconvLits   Dualrays   Nonzeros   LP Iters   (pool size: [10000,10000])
  propagation      :       0.00        461        366          -        565       74.4          0        0.0          -          -          -
  infeasible LP    :       0.41        149        149          -       7253      163.3          0        0.0        340      165.8          0
  bound exceed. LP :      16.64       4529       4215          -      91103      111.8          0        0.0          0        0.0      43933
  strong branching :       0.00          0          0          -          0        0.0          0        0.0          -          -          0
  pseudo solution  :       0.00          0          0          -          0        0.0          0        0.0          -          -          -
  applied globally :       0.52          -          -          0      22826      114.5          -          -        340          -          -
  applied locally  :          -          -          -          0          0        0.0          -          -          0          -          -
Separators         :   ExecTime  SetupTime      Calls  RootCalls    Cutoffs    DomReds  FoundCuts ViaPoolAdd  DirectAdd    Applied ViaPoolApp  DirectApp      Conss
  cut pool         :       9.86          -      21757        156          -          -      35874    2831222          -          -          -          -          -    (maximal pool size:       3585)
  aggregation      :      40.25       0.00       5400        129          0          0        487        393          0        106        106          0          0
  > cmir           :          -          -          -          -          -          -          -        393          0        106        106          0          -
  > flowcover      :          -          -          -          -          -          -          -          0          0          0          0          0          -
  > knapsackcover  :          -          -          -          -          -          -          -          0          0          0          0          0          -
  cgmip            :       0.00       0.00          0          0          0          0          0          0          0          0          0          0          0
  clique           :       0.00       0.00        129        129          0          0          0          0          0          0          0          0          0
  closecuts        :       0.00       0.00          0          0          0          0          0          0          0          0          0          0          0
  convexproj       :       0.00       0.00          0          0          0          0          0          0          0          0          0          0          0
  disjunctive      :       0.00       0.00          0          0          0          0          0          0          0          0          0          0          0
  eccuts           :       0.00       0.00          0          0          0          0          0          0          0          0          0          0          0
  gauge            :       0.00       0.00          0          0          0          0          0          0          0          0          0          0          0
  gomory           :       0.00       0.00          0          0          0          0          0          0          0          0          0          0          0
  > gomorymi       :          -          -          -          -          -          -          -          0          0          0          0          0          -
  > strongcg       :          -          -          -          -          -          -          -          0          0          0          0          0          -
  impliedbounds    :       0.46       0.00       5400        129          0          0         41          1          0          1          1          0          0
  interlattice     :       0.73       0.00         97         97          0          0         97          0         97         97          0         97          0
  interminor       :       0.00       0.00          0          0          0          0          0          0          0          0          0          0          0
  intersub         :       0.17       0.00          3          3          0          0          1          0          1          1          0          1          0
  intobj           :       0.00       0.00          0          0          0          0          0          0          0          0          0          0          0
  mcf              :       0.00       0.00          1          1          0          0          0          0          0          0          0          0          0
  minor            :       0.02       0.00          0          0          0          0          0          0          0          0          0          0          0
  mixing           :       0.04       0.00       5400        129          0          0          0          0          0          0          0          0          0
  oddcycle         :       0.00       0.00          0          0          0          0          0          0          0          0          0          0          0
  rapidlearning    :       0.00       0.00          0          0          0          0          0          0          0          0          0          0          0
  rlt              :       0.00       0.00         10         10          0          0          0          0          0          0          0          0          0
  zerohalf         :      41.24       0.00       4650         20          0          0      35346    2830828          0     175751     175751          0          0
Cutselectors       :   ExecTime  SetupTime      Calls  RootCalls   Selected     Forced   Filtered  RootSelec   RootForc   RootFilt 
  hybrid           :       3.07       0.00      21420        130     194143          0    2656062        298          0          4
Pricers            :   ExecTime  SetupTime      Calls       Vars
  problem variables:       0.00          -          0          0
Branching Rules    :   ExecTime  SetupTime   BranchLP  BranchExt   BranchPS    Cutoffs    DomReds       Cuts      Conss   Children
  allfullstrong    :       0.00       0.00          0          0          0          0          0          0          0          0
  cloud            :       0.00       0.00          0          0          0          0          0          0          0          0
  distribution     :       0.00       0.00          0          0          0          0          0          0          0          0
  fullstrong       :       0.00       0.00          0          0          0          0          0          0          0          0
  inference        :       0.00       0.00          0          0          0          0          0          0          0          0
  leastinf         :       0.00       0.00          0          0          0          0          0          0          0          0
  lookahead        :       0.00       0.00          0          0          0          0          0          0          0          0
  mostinf          :       0.00       0.00          0          0          0          0          0          0          0          0
  multaggr         :       0.00       0.00          0          0          0          0          0          0          0          0
  nodereopt        :       0.00       0.00          0          0          0          0          0          0          0          0
  pscost           :       0.00       0.00          0          0          0          0          0          0          0          0
  random           :       0.00       0.00          0          0          0          0          0          0          0          0
  relpscost        :      46.43       0.00      68528          0          0          0        529          0        460     136382
  vanillafullstrong:       0.00       0.00          0          0          0          0          0          0          0          0
Primal Heuristics  :   ExecTime  SetupTime      Calls      Found       Best
  LP solutions     :       0.05          -          -          5          5
  relax solutions  :       0.00          -          -          0          0
  pseudo solutions :       0.00          -          -          0          0
  strong branching :       0.03          -          -          0          0
  actconsdiving    :       0.00       0.00          0          0          0
  adaptivediving   :       4.33       0.00         30          0          0
  alns             :       3.29       0.00         18          4          4
  bound            :       0.00       0.00          0          0          0
  clique           :       0.01       0.00          1          0          0
  coefdiving       :       0.00       0.00          0          0          0
  completesol      :       0.00       0.00          0          0          0
  conflictdiving   :      85.45       0.00        589          0          0
  crossover        :       0.13       0.00          2          0          0
  dins             :       0.00       0.00          0          0          0
  distributiondivin:      82.51       0.00        343          0          0
  dps              :       0.00       0.00          0          0          0
  dualval          :       0.00       0.00          0          0          0
  farkasdiving     :       0.01       0.00          0          0          0
  feaspump         :       0.40       0.00          1          1          1
  fixandinfer      :       0.00       0.00          0          0          0
  fracdiving       :      53.47       0.00        402          0          0
  gins             :       0.04       0.00          0          0          0
  guideddiving     :      56.15       0.00        402          5          5
  indicator        :       0.14       0.00          0          0          0
  indicatordiving  :       0.00       0.00          0          0          0
  intdiving        :       0.00       0.00          0          0          0
  intshifting      :       0.39       0.00         45          0          0
  linesearchdiving :      50.16       0.00        402          0          0
  localbranching   :       0.00       0.00          0          0          0
  locks            :       0.01       0.00          1          0          0
  lpface           :       0.12       0.00          0          0          0
  mpec             :     454.43       0.00         11          3          2
  multistart       :       0.00       0.00          0          0          0
  mutation         :       0.00       0.00          0          0          0
  nlpdiving        :      30.03       0.00          2          0          0
  objpscostdiving  :      55.35       0.00         50          8          0
  octane           :       0.00       0.00          0          0          0
  ofins            :       0.08       0.00          0          0          0
  oneopt           :       0.12       0.00         19          0          0
  padm             :       0.00       0.00          0          0          0
  proximity        :       0.00       0.00          0          0          0
  pscostdiving     :      60.83       0.00        339          0          0
  randrounding     :       1.00       0.00       3277          0          0
  rens             :       0.00       0.00          0          0          0
  reoptsols        :       0.00       0.00          0          0          0
  repair           :       0.00       0.00          0          0          0
  rins             :       3.17       0.00         25          1          1
  rootsoldiving    :      34.26       0.00         33          0          0
  rounding         :       1.25       0.00       4093          0          0
  shiftandpropagate:       0.00       0.00          0          0          0
  shifting         :      23.05       0.00       5109          1          1
  simplerounding   :       0.11       0.00          0          0          0
  subnlp           :     129.20       0.00          0          0          0
  trivial          :       0.02       0.00          2          2          2
  trivialnegation  :       0.00       0.00          0          0          0
  trustregion      :       0.00       0.00          0          0          0
  trysol           :       0.12       0.00          0          0          0
  twoopt           :       0.00       0.00          0          0          0
  undercover       :       1.79       0.00          1          1          1
  vbounds          :       0.00       0.00          0          0          0
  veclendiving     :      54.64       0.00        402          0          0
  zeroobj          :       0.00       0.00          0          0          0
  zirounding       :       0.32       0.00       1000          0          0
  other solutions  :          -          -          -          0          -
Diving (single)    :      Calls      Nodes   LP Iters Backtracks  Conflicts   MinDepth   MaxDepth   AvgDepth  RoundSols  NLeafSols  MinSolDpt  MaxSolDpt  AvgSolDpt
  actconsdiving    :          0          -          -          -          -          -          -          -          -          -          -          -          -
  coefdiving       :          0          -          -          -          -          -          -          -          -          -          -          -          -
  conflictdiving   :        589      27522     813510        670      34479         51         82       65.9          0          -          -          -          -
  distributiondivin:        343      14522     574755        374       6620         53         74       60.6          0          -          -          -          -
  farkasdiving     :          0          -          -          -          -          -          -          -          -          -          -          -          -
  fracdiving       :        402      42493     479625         73       1233         55        590      125.3          0          -          -          -          -
  guideddiving     :        402      39207     515049        118       4182         53        358      117.8          0          5        105        150      119.8
  indicatordiving  :          0          -          -          -          -          -          -          -          -          -          -          -          -
  linesearchdiving :        402      18664     484831        198      17954         50        103       68.2          0          -          -          -          -
  pscostdiving     :        339      15600     575728        363       6269         54         75       64.6          0          -          -          -          -
  veclendiving     :        402      19953     518877        306      25689         54         85       68.5          0          -          -          -          -
Diving (adaptive)  :      Calls      Nodes   LP Iters Backtracks  Conflicts   MinDepth   MaxDepth   AvgDepth  RoundSols  NLeafSols  MinSolDpt  MaxSolDpt  AvgSolDpt
  actconsdiving    :          3        136       4789          3         64         60         61       60.3          0          -          -          -          -
  coefdiving       :         13        732      16699          6        806         63         83       72.6          0          -          -          -          -
  conflictdiving   :          0          -          -          -          -          -          -          -          -          -          -          -          -
  distributiondivin:          0          -          -          -          -          -          -          -          -          -          -          -          -
  farkasdiving     :          0          -          -          -          -          -          -          -          -          -          -          -          -
  fracdiving       :          2        188       2768          0          0        107        117      112.0          0          -          -          -          -
  guideddiving     :          1         82       1364          1         26        104        104      104.0          0          -          -          -          -
  indicatordiving  :          0          -          -          -          -          -          -          -          -          -          -          -          -
  linesearchdiving :          4        204       4997          1        157         65         74       69.2          0          -          -          -          -
  pscostdiving     :          1         43       1739          1         20         61         61       61.0          0          -          -          -          -
  veclendiving     :          6        306       5771          5        368         69         78       72.5          0          -          -          -          -
Neighborhoods      :      Calls  SetupTime  SolveTime SolveNodes       Sols       Best       Exp3  EpsGreedy        UCB TgtFixRate  Opt  Inf Node Stal  Sol  Usr Othr Actv
  rens             :          6       0.47       0.68        215          3          3    0.00000   -1.00000    0.47122      0.562    0    3    0    2    1    0    0    1
  rins             :          1       0.03       0.07        159          0          0    0.00000   -1.00000    0.40964      0.700    0    1    0    0    0    0    0    1
  mutation         :          2       0.10       0.07         62          0          0    0.00000   -1.00000    0.46911      0.850    0    1    0    1    0    0    0    1
  localbranching   :          2       0.13       0.13        101          0          0    0.00000   -1.00000    0.45476      0.850    0    1    0    1    0    0    0    1
  crossover        :          1       0.07       0.05         79          0          0    0.00000   -1.00000    0.41854      0.700    0    1    0    0    0    0    0    1
  proximity        :          2       0.12       0.90        986          1          1    0.00000   -1.00000    0.48367      0.850    1    0    0    1    0    0    0    1
  zeroobjective    :          2       0.15       0.06         91          0          0    0.00000   -1.00000    0.45903      0.850    0    1    0    1    0    0    0    1
  dins             :          2       0.06       0.08         70          0          0    0.00000   -1.00000    0.46186      0.850    0    1    0    1    0    0    0    1
  trustregion      :          0       0.00       0.00          0          0          0    0.00000   -1.00000    1.00000      0.900    0    0    0    0    0    0    0    0
Expressions        :   #IntEval  IntEvalTi   #RevProp  RevPropTi    DomReds    Cutoffs  #Estimate  EstimTime  Branching  #Simplify SimplifyTi Simplified
  pow              :          0       0.00          0       0.00          0          0          0       0.00          0          0       0.00          0
  prod             :       9900       0.00          0       0.00          0          0          0       0.00          0       6598       0.00          0
  sum              :          8       0.00          2       0.00          0          0          0       0.00          0          3       0.01          2
  var              :       6104       0.00          0       0.00          0          0          0       0.00          0      15163       0.00          0
  varidx           :          0       0.00          0       0.00          0          0          0       0.00          0          0       0.00          0
LP                 :       Time      Calls Iterations  Iter/call   Iter/sec  Time-0-It Calls-0-It    ItLimit
  primal LP        :     102.65      11743          0       0.00       0.00     102.53      11743
  dual LP          :    1928.69     147694   11155828      82.57    5784.15       6.06      12579
  lex dual LP      :       0.00          0          0       0.00          -
  barrier LP       :       0.00          0          0       0.00          -       0.00          0
  resolve instable :       0.00          0          0       0.00          -
  diving/probing LP:     449.57      15784    4481909     283.95    9969.32
  strong branching :      20.51       1759     180278     102.49    8789.76          -          -         10
    (at root node) :          -         20       4900     245.00          -
  conflict analysis:       6.97       4566      43933       9.62    6303.16
NLP relaxation     :
  solve time       :      29.46 (10 calls)
  convexity        :  nonconvex (49 linear rows, 0 convex ineq., 0 nonconvex ineq., 1648 nonlinear eq. or two-sided ineq.)
NLP Solvers        :  #Problems  ProblemTi    #Solves  SolveTime      #Iter  Time/Iter      #Okay #TimeLimit #IterLimit #LObjLimit #Interrupt  #NumError #EvalError  #OutOfMem #LicenseEr #OtherTerm   #GlobOpt    #LocOpt  #Feasible #LocInfeas #GlobInfea #Unbounded   #Unknown
  ipopt            :         12       5.41         39     489.56       1972       0.25         37          0          2          0          0          0          0          0          0          0          0         23          0         13          0          0          3
B&B Tree           :
  number of runs   :          1
  nodes            :     113372 (68191 internal, 45181 leaves)
  feasible leaves  :          5
  infeas. leaves   :          7
  objective leaves :      45168
  nodes (total)    :     113372 (68191 internal, 45181 leaves)
  nodes left       :      22919
  max depth        :         62
  max depth (total):         62
  backtracks       :      26337 (23.2%)
  early backtracks :          0 (0.0%)
  nodes exc. ref.  :          0 (0.0%)
  delayed cutoffs  :         11
  repropagations   :       3822 (196 domain reductions, 0 cutoffs)
  avg switch length:       5.95
  switching time   :     133.97
Estim. Tree Size   :     226928
Estimation Tree    : 136383 nodes (113464 visited, 68191 internal, 45273 leaves, 22919 open), weight: 0.0000 completed 0.0815
Estimations        :      estim      value      trend resolution     smooth
  wbe              : 380251754224638          -          -          -          -
  tree-profile     :         -1          -          -          -          -
  gap              :    1798711    0.67135    0.00002         64    1821598
  tree-weight      :     226928    0.00000    0.00000         64     226682
  leaf-frequency   :     226928    0.39900   -0.00001         64     226682
  ssg              :    7928203    0.87126   -0.00001         64    7933729
  open-nodes       :     226928 22919.00000   23.69634         64     226682
Root Node          :
  First LP value   : -1.00000000000000e+00
  First LP Iters   :       1623 (11592.86 Iter/sec)
  First LP Time    :       0.14
  Final Dual Bound : -9.48040894674906e-01
  Final Root Iters :       3862
  Root LP Estimate : -2.93552437507830e-01
Solution           :
  Solutions found  :         31 (22 improvements)
  First Solution   : +1.00000000000000e+05   (in run 1, after 0 nodes, 0.00 seconds, depth 0, found by <trivial>)
  Gap First Sol.   :   infinite
  Gap Last Sol.    :      49.66 %
  Primal Bound     : -5.61212121212120e-01   (in run 1, after 98035 nodes, 2742.00 seconds, depth 48, found by <relaxation>)
  Dual Bound       : -8.35948379816674e-01
  Gap              :      48.95 %
Integrals          :      Total       Avg%
  primal-dual      :  128320.66      35.64
  primal-ref       :          -          - (not evaluated)
  dual-ref         :          -          - (not evaluated)
